; benchmark generated from python API
(set-info :status unknown)
(declare-fun cell_1_3 () Int)
(declare-fun cell_1_6 () Int)
(declare-fun cell_2_6 () Int)
(declare-fun cell_2_8 () Int)
(declare-fun cell_3_3 () Int)
(declare-fun cell_3_9 () Int)
(declare-fun cell_4_4 () Int)
(declare-fun cell_4_5 () Int)
(declare-fun cell_5_1 () Int)
(declare-fun cell_5_8 () Int)
(declare-fun cell_6_1 () Int)
(declare-fun cell_6_9 () Int)
(declare-fun cell_7_4 () Int)
(declare-fun cell_8_2 () Int)
(declare-fun cell_9_7 () Int)
(declare-fun cell_1_1 () Int)
(declare-fun cell_2_1 () Int)
(declare-fun cell_3_1 () Int)
(declare-fun cell_4_1 () Int)
(declare-fun cell_7_1 () Int)
(declare-fun cell_8_1 () Int)
(declare-fun cell_9_1 () Int)
(declare-fun cell_1_2 () Int)
(declare-fun cell_2_2 () Int)
(declare-fun cell_3_2 () Int)
(declare-fun cell_4_2 () Int)
(declare-fun cell_5_2 () Int)
(declare-fun cell_6_2 () Int)
(declare-fun cell_7_2 () Int)
(declare-fun cell_9_2 () Int)
(declare-fun cell_2_3 () Int)
(declare-fun cell_4_3 () Int)
(declare-fun cell_5_3 () Int)
(declare-fun cell_6_3 () Int)
(declare-fun cell_7_3 () Int)
(declare-fun cell_8_3 () Int)
(declare-fun cell_9_3 () Int)
(declare-fun cell_1_4 () Int)
(declare-fun cell_2_4 () Int)
(declare-fun cell_3_4 () Int)
(declare-fun cell_5_4 () Int)
(declare-fun cell_6_4 () Int)
(declare-fun cell_8_4 () Int)
(declare-fun cell_9_4 () Int)
(declare-fun cell_1_5 () Int)
(declare-fun cell_2_5 () Int)
(declare-fun cell_3_5 () Int)
(declare-fun cell_5_5 () Int)
(declare-fun cell_6_5 () Int)
(declare-fun cell_7_5 () Int)
(declare-fun cell_8_5 () Int)
(declare-fun cell_9_5 () Int)
(declare-fun cell_3_6 () Int)
(declare-fun cell_4_6 () Int)
(declare-fun cell_5_6 () Int)
(declare-fun cell_6_6 () Int)
(declare-fun cell_7_6 () Int)
(declare-fun cell_8_6 () Int)
(declare-fun cell_9_6 () Int)
(declare-fun cell_1_7 () Int)
(declare-fun cell_2_7 () Int)
(declare-fun cell_3_7 () Int)
(declare-fun cell_4_7 () Int)
(declare-fun cell_5_7 () Int)
(declare-fun cell_6_7 () Int)
(declare-fun cell_7_7 () Int)
(declare-fun cell_8_7 () Int)
(declare-fun cell_1_8 () Int)
(declare-fun cell_3_8 () Int)
(declare-fun cell_4_8 () Int)
(declare-fun cell_6_8 () Int)
(declare-fun cell_7_8 () Int)
(declare-fun cell_8_8 () Int)
(declare-fun cell_9_8 () Int)
(declare-fun cell_1_9 () Int)
(declare-fun cell_2_9 () Int)
(declare-fun cell_4_9 () Int)
(declare-fun cell_5_9 () Int)
(declare-fun cell_7_9 () Int)
(declare-fun cell_8_9 () Int)
(declare-fun cell_9_9 () Int)
(assert
 (= cell_1_3 1))
(assert
 (= cell_1_6 2))
(assert
 (= cell_2_6 1))
(assert
 (= cell_2_8 2))
(assert
 (= cell_3_3 2))
(assert
 (= cell_3_9 1))
(assert
 (= cell_4_4 2))
(assert
 (= cell_4_5 1))
(assert
 (= cell_5_1 2))
(assert
 (= cell_5_8 1))
(assert
 (= cell_6_1 1))
(assert
 (= cell_6_9 2))
(assert
 (= cell_7_4 1))
(assert
 (= cell_8_2 1))
(assert
 (= cell_9_7 1))
(assert
 (let (($x1556 (= cell_1_1 9)))
 (let (($x2394 (= cell_1_1 8)))
 (let (($x992 (= cell_1_1 7)))
 (let (($x2556 (= cell_1_1 6)))
 (let (($x1920 (= cell_1_1 5)))
 (let (($x1525 (= cell_1_1 4)))
 (let (($x2821 (= cell_1_1 3)))
 (let (($x2315 (= cell_1_1 2)))
 (let (($x2073 (= cell_1_1 1)))
 (or $x2073 $x2315 $x2821 $x1525 $x1920 $x2556 $x992 $x2394 $x1556)))))))))))
(assert
 (let (($x899 (= cell_2_1 9)))
 (let (($x625 (= cell_2_1 8)))
 (let (($x2537 (= cell_2_1 7)))
 (let (($x2940 (= cell_2_1 6)))
 (let (($x3691 (= cell_2_1 5)))
 (let (($x2858 (= cell_2_1 4)))
 (let (($x433 (= cell_2_1 3)))
 (let (($x1110 (= cell_2_1 2)))
 (let (($x1486 (= cell_2_1 1)))
 (or $x1486 $x1110 $x433 $x2858 $x3691 $x2940 $x2537 $x625 $x899)))))))))))
(assert
 (let (($x223 (= cell_3_1 9)))
 (let (($x2370 (= cell_3_1 8)))
 (let (($x67 (= cell_3_1 7)))
 (let (($x228 (= cell_3_1 6)))
 (let (($x29 (= cell_3_1 5)))
 (let (($x2835 (= cell_3_1 4)))
 (let (($x843 (= cell_3_1 3)))
 (let (($x2011 (= cell_3_1 2)))
 (let (($x2149 (= cell_3_1 1)))
 (or $x2149 $x2011 $x843 $x2835 $x29 $x228 $x67 $x2370 $x223)))))))))))
(assert
 (let (($x2168 (= cell_4_1 9)))
 (let (($x1615 (= cell_4_1 8)))
 (let (($x2372 (= cell_4_1 7)))
 (let (($x1793 (= cell_4_1 6)))
 (let (($x3631 (= cell_4_1 5)))
 (let (($x376 (= cell_4_1 4)))
 (let (($x2904 (= cell_4_1 3)))
 (let (($x1264 (= cell_4_1 2)))
 (let (($x929 (= cell_4_1 1)))
 (or $x929 $x1264 $x2904 $x376 $x3631 $x1793 $x2372 $x1615 $x2168)))))))))))
(assert
 (let (($x1529 (= cell_5_1 2)))
 (or (= cell_5_1 1) $x1529 (= cell_5_1 3) (= cell_5_1 4) (= cell_5_1 5) (= cell_5_1 6) (= cell_5_1 7) (= cell_5_1 8) (= cell_5_1 9))))
(assert
 (let (($x1616 (= cell_6_1 1)))
 (or $x1616 (= cell_6_1 2) (= cell_6_1 3) (= cell_6_1 4) (= cell_6_1 5) (= cell_6_1 6) (= cell_6_1 7) (= cell_6_1 8) (= cell_6_1 9))))
(assert
 (let (($x3454 (= cell_7_1 9)))
 (let (($x11 (= cell_7_1 8)))
 (let (($x3346 (= cell_7_1 7)))
 (let (($x2113 (= cell_7_1 6)))
 (let (($x264 (= cell_7_1 5)))
 (let (($x675 (= cell_7_1 4)))
 (let (($x1802 (= cell_7_1 3)))
 (let (($x2132 (= cell_7_1 2)))
 (let (($x1224 (= cell_7_1 1)))
 (or $x1224 $x2132 $x1802 $x675 $x264 $x2113 $x3346 $x11 $x3454)))))))))))
(assert
 (let (($x184 (= cell_8_1 9)))
 (let (($x2264 (= cell_8_1 8)))
 (let (($x2545 (= cell_8_1 7)))
 (let (($x2840 (= cell_8_1 6)))
 (let (($x1884 (= cell_8_1 5)))
 (let (($x1222 (= cell_8_1 4)))
 (let (($x3200 (= cell_8_1 3)))
 (let (($x2008 (= cell_8_1 2)))
 (let (($x1690 (= cell_8_1 1)))
 (or $x1690 $x2008 $x3200 $x1222 $x1884 $x2840 $x2545 $x2264 $x184)))))))))))
(assert
 (let (($x2895 (= cell_9_1 9)))
 (let (($x3490 (= cell_9_1 8)))
 (let (($x1829 (= cell_9_1 7)))
 (let (($x1455 (= cell_9_1 6)))
 (let (($x1853 (= cell_9_1 5)))
 (let (($x2421 (= cell_9_1 4)))
 (let (($x2248 (= cell_9_1 3)))
 (let (($x2159 (= cell_9_1 2)))
 (let (($x462 (= cell_9_1 1)))
 (or $x462 $x2159 $x2248 $x2421 $x1853 $x1455 $x1829 $x3490 $x2895)))))))))))
(assert
 (let (($x2373 (= cell_1_2 9)))
 (let (($x2900 (= cell_1_2 8)))
 (let (($x2527 (= cell_1_2 7)))
 (let (($x1506 (= cell_1_2 6)))
 (let (($x1146 (= cell_1_2 5)))
 (let (($x1991 (= cell_1_2 4)))
 (let (($x1289 (= cell_1_2 3)))
 (let (($x556 (= cell_1_2 2)))
 (let (($x2136 (= cell_1_2 1)))
 (or $x2136 $x556 $x1289 $x1991 $x1146 $x1506 $x2527 $x2900 $x2373)))))))))))
(assert
 (let (($x2535 (= cell_2_2 9)))
 (let (($x3041 (= cell_2_2 8)))
 (let (($x2683 (= cell_2_2 7)))
 (let (($x575 (= cell_2_2 6)))
 (let (($x909 (= cell_2_2 5)))
 (let (($x3619 (= cell_2_2 4)))
 (let (($x2240 (= cell_2_2 3)))
 (let (($x2288 (= cell_2_2 2)))
 (let (($x1247 (= cell_2_2 1)))
 (or $x1247 $x2288 $x2240 $x3619 $x909 $x575 $x2683 $x3041 $x2535)))))))))))
(assert
 (let (($x1836 (= cell_3_2 9)))
 (let (($x3766 (= cell_3_2 8)))
 (let (($x1160 (= cell_3_2 7)))
 (let (($x2253 (= cell_3_2 6)))
 (let (($x2503 (= cell_3_2 5)))
 (let (($x2932 (= cell_3_2 4)))
 (let (($x3038 (= cell_3_2 3)))
 (let (($x2536 (= cell_3_2 2)))
 (let (($x2389 (= cell_3_2 1)))
 (or $x2389 $x2536 $x3038 $x2932 $x2503 $x2253 $x1160 $x3766 $x1836)))))))))))
(assert
 (let (($x144 (= cell_4_2 9)))
 (let (($x1361 (= cell_4_2 8)))
 (let (($x1663 (= cell_4_2 7)))
 (let (($x734 (= cell_4_2 6)))
 (let (($x1804 (= cell_4_2 5)))
 (let (($x1976 (= cell_4_2 4)))
 (let (($x799 (= cell_4_2 3)))
 (let (($x935 (= cell_4_2 2)))
 (let (($x3368 (= cell_4_2 1)))
 (or $x3368 $x935 $x799 $x1976 $x1804 $x734 $x1663 $x1361 $x144)))))))))))
(assert
 (let (($x547 (= cell_5_2 9)))
 (let (($x307 (= cell_5_2 8)))
 (let (($x793 (= cell_5_2 7)))
 (let (($x3170 (= cell_5_2 6)))
 (let (($x2525 (= cell_5_2 5)))
 (let (($x1848 (= cell_5_2 4)))
 (let (($x1767 (= cell_5_2 3)))
 (let (($x1495 (= cell_5_2 2)))
 (let (($x1203 (= cell_5_2 1)))
 (or $x1203 $x1495 $x1767 $x1848 $x2525 $x3170 $x793 $x307 $x547)))))))))))
(assert
 (let (($x1815 (= cell_6_2 9)))
 (let (($x4067 (= cell_6_2 8)))
 (let (($x2351 (= cell_6_2 7)))
 (let (($x822 (= cell_6_2 6)))
 (let (($x1796 (= cell_6_2 5)))
 (let (($x2779 (= cell_6_2 4)))
 (let (($x902 (= cell_6_2 3)))
 (let (($x742 (= cell_6_2 2)))
 (let (($x1154 (= cell_6_2 1)))
 (or $x1154 $x742 $x902 $x2779 $x1796 $x822 $x2351 $x4067 $x1815)))))))))))
(assert
 (let (($x1225 (= cell_7_2 9)))
 (let (($x1088 (= cell_7_2 8)))
 (let (($x963 (= cell_7_2 7)))
 (let (($x869 (= cell_7_2 6)))
 (let (($x57 (= cell_7_2 5)))
 (let (($x451 (= cell_7_2 4)))
 (let (($x2571 (= cell_7_2 3)))
 (let (($x109 (= cell_7_2 2)))
 (let (($x1588 (= cell_7_2 1)))
 (or $x1588 $x109 $x2571 $x451 $x57 $x869 $x963 $x1088 $x1225)))))))))))
(assert
 (let (($x832 (= cell_8_2 1)))
 (or $x832 (= cell_8_2 2) (= cell_8_2 3) (= cell_8_2 4) (= cell_8_2 5) (= cell_8_2 6) (= cell_8_2 7) (= cell_8_2 8) (= cell_8_2 9))))
(assert
 (let (($x2328 (= cell_9_2 9)))
 (let (($x1250 (= cell_9_2 8)))
 (let (($x2234 (= cell_9_2 7)))
 (let (($x2809 (= cell_9_2 6)))
 (let (($x2220 (= cell_9_2 5)))
 (let (($x221 (= cell_9_2 4)))
 (let (($x872 (= cell_9_2 3)))
 (let (($x2611 (= cell_9_2 2)))
 (let (($x1993 (= cell_9_2 1)))
 (or $x1993 $x2611 $x872 $x221 $x2220 $x2809 $x2234 $x1250 $x2328)))))))))))
(assert
 (let (($x3598 (= cell_1_3 1)))
 (or $x3598 (= cell_1_3 2) (= cell_1_3 3) (= cell_1_3 4) (= cell_1_3 5) (= cell_1_3 6) (= cell_1_3 7) (= cell_1_3 8) (= cell_1_3 9))))
(assert
 (let (($x2704 (= cell_2_3 9)))
 (let (($x2056 (= cell_2_3 8)))
 (let (($x1066 (= cell_2_3 7)))
 (let (($x546 (= cell_2_3 6)))
 (let (($x1713 (= cell_2_3 5)))
 (let (($x2331 (= cell_2_3 4)))
 (let (($x1596 (= cell_2_3 3)))
 (let (($x602 (= cell_2_3 2)))
 (let (($x1575 (= cell_2_3 1)))
 (or $x1575 $x602 $x1596 $x2331 $x1713 $x546 $x1066 $x2056 $x2704)))))))))))
(assert
 (let (($x1340 (= cell_3_3 2)))
 (or (= cell_3_3 1) $x1340 (= cell_3_3 3) (= cell_3_3 4) (= cell_3_3 5) (= cell_3_3 6) (= cell_3_3 7) (= cell_3_3 8) (= cell_3_3 9))))
(assert
 (let (($x652 (= cell_4_3 9)))
 (let (($x1762 (= cell_4_3 8)))
 (let (($x359 (= cell_4_3 7)))
 (let (($x823 (= cell_4_3 6)))
 (let (($x2659 (= cell_4_3 5)))
 (let (($x2007 (= cell_4_3 4)))
 (let (($x3761 (= cell_4_3 3)))
 (let (($x714 (= cell_4_3 2)))
 (let (($x2838 (= cell_4_3 1)))
 (or $x2838 $x714 $x3761 $x2007 $x2659 $x823 $x359 $x1762 $x652)))))))))))
(assert
 (let (($x2902 (= cell_5_3 9)))
 (let (($x1760 (= cell_5_3 8)))
 (let (($x269 (= cell_5_3 7)))
 (let (($x466 (= cell_5_3 6)))
 (let (($x2865 (= cell_5_3 5)))
 (let (($x2470 (= cell_5_3 4)))
 (let (($x522 (= cell_5_3 3)))
 (let (($x2319 (= cell_5_3 2)))
 (let (($x1737 (= cell_5_3 1)))
 (or $x1737 $x2319 $x522 $x2470 $x2865 $x466 $x269 $x1760 $x2902)))))))))))
(assert
 (let (($x829 (= cell_6_3 9)))
 (let (($x489 (= cell_6_3 8)))
 (let (($x1483 (= cell_6_3 7)))
 (let (($x1900 (= cell_6_3 6)))
 (let (($x969 (= cell_6_3 5)))
 (let (($x1765 (= cell_6_3 4)))
 (let (($x1313 (= cell_6_3 3)))
 (let (($x267 (= cell_6_3 2)))
 (let (($x2857 (= cell_6_3 1)))
 (or $x2857 $x267 $x1313 $x1765 $x969 $x1900 $x1483 $x489 $x829)))))))))))
(assert
 (let (($x2886 (= cell_7_3 9)))
 (let (($x3711 (= cell_7_3 8)))
 (let (($x2614 (= cell_7_3 7)))
 (let (($x357 (= cell_7_3 6)))
 (let (($x2289 (= cell_7_3 5)))
 (let (($x3076 (= cell_7_3 4)))
 (let (($x1655 (= cell_7_3 3)))
 (let (($x2337 (= cell_7_3 2)))
 (let (($x894 (= cell_7_3 1)))
 (or $x894 $x2337 $x1655 $x3076 $x2289 $x357 $x2614 $x3711 $x2886)))))))))))
(assert
 (let (($x699 (= cell_8_3 2)))
 (let (($x394 (= cell_8_3 1)))
 (or $x394 $x699 (= cell_8_3 3) (= cell_8_3 4) (= cell_8_3 5) (= cell_8_3 6) (= cell_8_3 7) (= cell_8_3 8) (= cell_8_3 9)))))
(assert
 (let (($x2596 (= cell_9_3 9)))
 (let (($x1605 (= cell_9_3 8)))
 (let (($x1609 (= cell_9_3 7)))
 (let (($x744 (= cell_9_3 6)))
 (let (($x2555 (= cell_9_3 5)))
 (let (($x1213 (= cell_9_3 4)))
 (let (($x2739 (= cell_9_3 3)))
 (let (($x778 (= cell_9_3 2)))
 (let (($x1048 (= cell_9_3 1)))
 (or $x1048 $x778 $x2739 $x1213 $x2555 $x744 $x1609 $x1605 $x2596)))))))))))
(assert
 (let (($x3680 (= cell_1_4 9)))
 (let (($x3153 (= cell_1_4 8)))
 (let (($x2887 (= cell_1_4 7)))
 (let (($x2063 (= cell_1_4 6)))
 (let (($x1380 (= cell_1_4 5)))
 (let (($x3789 (= cell_1_4 4)))
 (let (($x1032 (= cell_1_4 3)))
 (let (($x1598 (= cell_1_4 2)))
 (let (($x1068 (= cell_1_4 1)))
 (or $x1068 $x1598 $x1032 $x3789 $x1380 $x2063 $x2887 $x3153 $x3680)))))))))))
(assert
 (let (($x553 (= cell_2_4 9)))
 (let (($x709 (= cell_2_4 8)))
 (let (($x2517 (= cell_2_4 7)))
 (let (($x2112 (= cell_2_4 6)))
 (let (($x581 (= cell_2_4 5)))
 (let (($x1515 (= cell_2_4 4)))
 (let (($x2135 (= cell_2_4 3)))
 (let (($x1014 (= cell_2_4 2)))
 (let (($x1752 (= cell_2_4 1)))
 (or $x1752 $x1014 $x2135 $x1515 $x581 $x2112 $x2517 $x709 $x553)))))))))))
(assert
 (let (($x1126 (= cell_3_4 9)))
 (let (($x1059 (= cell_3_4 8)))
 (let (($x2282 (= cell_3_4 7)))
 (let (($x3492 (= cell_3_4 6)))
 (let (($x3157 (= cell_3_4 5)))
 (let (($x3184 (= cell_3_4 4)))
 (let (($x2664 (= cell_3_4 3)))
 (let (($x3750 (= cell_3_4 2)))
 (let (($x877 (= cell_3_4 1)))
 (or $x877 $x3750 $x2664 $x3184 $x3157 $x3492 $x2282 $x1059 $x1126)))))))))))
(assert
 (let (($x178 (= cell_4_4 2)))
 (or (= cell_4_4 1) $x178 (= cell_4_4 3) (= cell_4_4 4) (= cell_4_4 5) (= cell_4_4 6) (= cell_4_4 7) (= cell_4_4 8) (= cell_4_4 9))))
(assert
 (let (($x1876 (= cell_5_4 9)))
 (let (($x354 (= cell_5_4 8)))
 (let (($x2054 (= cell_5_4 7)))
 (let (($x3642 (= cell_5_4 6)))
 (let (($x1904 (= cell_5_4 5)))
 (let (($x3197 (= cell_5_4 4)))
 (let (($x1669 (= cell_5_4 3)))
 (let (($x2796 (= cell_5_4 2)))
 (let (($x1839 (= cell_5_4 1)))
 (or $x1839 $x2796 $x1669 $x3197 $x1904 $x3642 $x2054 $x354 $x1876)))))))))))
(assert
 (let (($x3845 (= cell_6_4 9)))
 (let (($x2489 (= cell_6_4 8)))
 (let (($x1463 (= cell_6_4 7)))
 (let (($x2415 (= cell_6_4 6)))
 (let (($x1303 (= cell_6_4 5)))
 (let (($x146 (= cell_6_4 4)))
 (let (($x1094 (= cell_6_4 3)))
 (let (($x2454 (= cell_6_4 2)))
 (let (($x182 (= cell_6_4 1)))
 (or $x182 $x2454 $x1094 $x146 $x1303 $x2415 $x1463 $x2489 $x3845)))))))))))
(assert
 (let (($x113 (= cell_7_4 1)))
 (or $x113 (= cell_7_4 2) (= cell_7_4 3) (= cell_7_4 4) (= cell_7_4 5) (= cell_7_4 6) (= cell_7_4 7) (= cell_7_4 8) (= cell_7_4 9))))
(assert
 (let (($x320 (= cell_8_4 2)))
 (let (($x297 (= cell_8_4 1)))
 (or $x297 $x320 (= cell_8_4 3) (= cell_8_4 4) (= cell_8_4 5) (= cell_8_4 6) (= cell_8_4 7) (= cell_8_4 8) (= cell_8_4 9)))))
(assert
 (let (($x4061 (= cell_9_4 9)))
 (let (($x632 (= cell_9_4 8)))
 (let (($x716 (= cell_9_4 7)))
 (let (($x2530 (= cell_9_4 6)))
 (let (($x3604 (= cell_9_4 5)))
 (let (($x1466 (= cell_9_4 4)))
 (let (($x816 (= cell_9_4 3)))
 (let (($x1178 (= cell_9_4 2)))
 (let (($x255 (= cell_9_4 1)))
 (or $x255 $x1178 $x816 $x1466 $x3604 $x2530 $x716 $x632 $x4061)))))))))))
(assert
 (let (($x958 (= cell_1_5 9)))
 (let (($x3628 (= cell_1_5 8)))
 (let (($x251 (= cell_1_5 7)))
 (let (($x1426 (= cell_1_5 6)))
 (let (($x1849 (= cell_1_5 5)))
 (let (($x48 (= cell_1_5 4)))
 (let (($x318 (= cell_1_5 3)))
 (let (($x960 (= cell_1_5 2)))
 (let (($x1837 (= cell_1_5 1)))
 (or $x1837 $x960 $x318 $x48 $x1849 $x1426 $x251 $x3628 $x958)))))))))))
(assert
 (let (($x1620 (= cell_2_5 9)))
 (let (($x3355 (= cell_2_5 8)))
 (let (($x2810 (= cell_2_5 7)))
 (let (($x674 (= cell_2_5 6)))
 (let (($x2213 (= cell_2_5 5)))
 (let (($x150 (= cell_2_5 4)))
 (let (($x901 (= cell_2_5 3)))
 (let (($x2668 (= cell_2_5 2)))
 (let (($x2249 (= cell_2_5 1)))
 (or $x2249 $x2668 $x901 $x150 $x2213 $x674 $x2810 $x3355 $x1620)))))))))))
(assert
 (let (($x2914 (= cell_3_5 9)))
 (let (($x3121 (= cell_3_5 8)))
 (let (($x1693 (= cell_3_5 7)))
 (let (($x196 (= cell_3_5 6)))
 (let (($x1627 (= cell_3_5 5)))
 (let (($x2323 (= cell_3_5 4)))
 (let (($x193 (= cell_3_5 3)))
 (let (($x1208 (= cell_3_5 2)))
 (let (($x209 (= cell_3_5 1)))
 (or $x209 $x1208 $x193 $x2323 $x1627 $x196 $x1693 $x3121 $x2914)))))))))))
(assert
 (let (($x1292 (= cell_4_5 1)))
 (or $x1292 (= cell_4_5 2) (= cell_4_5 3) (= cell_4_5 4) (= cell_4_5 5) (= cell_4_5 6) (= cell_4_5 7) (= cell_4_5 8) (= cell_4_5 9))))
(assert
 (let (($x2375 (= cell_5_5 9)))
 (let (($x2811 (= cell_5_5 8)))
 (let (($x1659 (= cell_5_5 7)))
 (let (($x417 (= cell_5_5 6)))
 (let (($x2371 (= cell_5_5 5)))
 (let (($x1685 (= cell_5_5 4)))
 (let (($x1949 (= cell_5_5 3)))
 (let (($x2251 (= cell_5_5 2)))
 (let (($x2974 (= cell_5_5 1)))
 (or $x2974 $x2251 $x1949 $x1685 $x2371 $x417 $x1659 $x2811 $x2375)))))))))))
(assert
 (let (($x345 (= cell_6_5 9)))
 (let (($x42 (= cell_6_5 8)))
 (let (($x1036 (= cell_6_5 7)))
 (let (($x2665 (= cell_6_5 6)))
 (let (($x885 (= cell_6_5 5)))
 (let (($x936 (= cell_6_5 4)))
 (let (($x1691 (= cell_6_5 3)))
 (let (($x3101 (= cell_6_5 2)))
 (let (($x2760 (= cell_6_5 1)))
 (or $x2760 $x3101 $x1691 $x936 $x885 $x2665 $x1036 $x42 $x345)))))))))))
(assert
 (let (($x1594 (= cell_7_5 1)))
 (or $x1594 (= cell_7_5 2) (= cell_7_5 3) (= cell_7_5 4) (= cell_7_5 5) (= cell_7_5 6) (= cell_7_5 7) (= cell_7_5 8) (= cell_7_5 9))))
(assert
 (let (($x3359 (= cell_8_5 1)))
 (or $x3359 (= cell_8_5 2) (= cell_8_5 3) (= cell_8_5 4) (= cell_8_5 5) (= cell_8_5 6) (= cell_8_5 7) (= cell_8_5 8) (= cell_8_5 9))))
(assert
 (let (($x3002 (= cell_9_5 9)))
 (let (($x486 (= cell_9_5 8)))
 (let (($x300 (= cell_9_5 7)))
 (let (($x1049 (= cell_9_5 6)))
 (let (($x2013 (= cell_9_5 5)))
 (let (($x288 (= cell_9_5 4)))
 (let (($x2740 (= cell_9_5 3)))
 (let (($x950 (= cell_9_5 2)))
 (let (($x1475 (= cell_9_5 1)))
 (or $x1475 $x950 $x2740 $x288 $x2013 $x1049 $x300 $x486 $x3002)))))))))))
(assert
 (let (($x1240 (= cell_1_6 2)))
 (or (= cell_1_6 1) $x1240 (= cell_1_6 3) (= cell_1_6 4) (= cell_1_6 5) (= cell_1_6 6) (= cell_1_6 7) (= cell_1_6 8) (= cell_1_6 9))))
(assert
 (let (($x3557 (= cell_2_6 1)))
 (or $x3557 (= cell_2_6 2) (= cell_2_6 3) (= cell_2_6 4) (= cell_2_6 5) (= cell_2_6 6) (= cell_2_6 7) (= cell_2_6 8) (= cell_2_6 9))))
(assert
 (let (($x1111 (= cell_3_6 9)))
 (let (($x975 (= cell_3_6 8)))
 (let (($x670 (= cell_3_6 7)))
 (let (($x1045 (= cell_3_6 6)))
 (let (($x270 (= cell_3_6 5)))
 (let (($x311 (= cell_3_6 4)))
 (let (($x54 (= cell_3_6 3)))
 (let (($x3501 (= cell_3_6 2)))
 (let (($x1435 (= cell_3_6 1)))
 (or $x1435 $x3501 $x54 $x311 $x270 $x1045 $x670 $x975 $x1111)))))))))))
(assert
 (let (($x1438 (= cell_4_6 2)))
 (let (($x3340 (= cell_4_6 1)))
 (or $x3340 $x1438 (= cell_4_6 3) (= cell_4_6 4) (= cell_4_6 5) (= cell_4_6 6) (= cell_4_6 7) (= cell_4_6 8) (= cell_4_6 9)))))
(assert
 (let (($x908 (= cell_5_6 9)))
 (let (($x2943 (= cell_5_6 8)))
 (let (($x2849 (= cell_5_6 7)))
 (let (($x1587 (= cell_5_6 6)))
 (let (($x882 (= cell_5_6 5)))
 (let (($x2059 (= cell_5_6 4)))
 (let (($x3534 (= cell_5_6 3)))
 (let (($x1293 (= cell_5_6 2)))
 (let (($x2910 (= cell_5_6 1)))
 (or $x2910 $x1293 $x3534 $x2059 $x882 $x1587 $x2849 $x2943 $x908)))))))))))
(assert
 (let (($x1868 (= cell_6_6 9)))
 (let (($x2860 (= cell_6_6 8)))
 (let (($x2241 (= cell_6_6 7)))
 (let (($x2396 (= cell_6_6 6)))
 (let (($x912 (= cell_6_6 5)))
 (let (($x2210 (= cell_6_6 4)))
 (let (($x1236 (= cell_6_6 3)))
 (let (($x1031 (= cell_6_6 2)))
 (let (($x948 (= cell_6_6 1)))
 (or $x948 $x1031 $x1236 $x2210 $x912 $x2396 $x2241 $x2860 $x1868)))))))))))
(assert
 (let (($x1537 (= cell_7_6 2)))
 (let (($x1933 (= cell_7_6 1)))
 (or $x1933 $x1537 (= cell_7_6 3) (= cell_7_6 4) (= cell_7_6 5) (= cell_7_6 6) (= cell_7_6 7) (= cell_7_6 8) (= cell_7_6 9)))))
(assert
 (let (($x1648 (= cell_8_6 2)))
 (let (($x1626 (= cell_8_6 1)))
 (or $x1626 $x1648 (= cell_8_6 3) (= cell_8_6 4) (= cell_8_6 5) (= cell_8_6 6) (= cell_8_6 7) (= cell_8_6 8) (= cell_8_6 9)))))
(assert
 (let (($x2174 (= cell_9_6 9)))
 (let (($x1103 (= cell_9_6 8)))
 (let (($x294 (= cell_9_6 7)))
 (let (($x760 (= cell_9_6 6)))
 (let (($x1351 (= cell_9_6 5)))
 (let (($x2588 (= cell_9_6 4)))
 (let (($x1428 (= cell_9_6 3)))
 (let (($x3836 (= cell_9_6 2)))
 (let (($x2184 (= cell_9_6 1)))
 (or $x2184 $x3836 $x1428 $x2588 $x1351 $x760 $x294 $x1103 $x2174)))))))))))
(assert
 (let (($x18 (= cell_1_7 9)))
 (let (($x1409 (= cell_1_7 8)))
 (let (($x3231 (= cell_1_7 7)))
 (let (($x1654 (= cell_1_7 6)))
 (let (($x3475 (= cell_1_7 5)))
 (let (($x2020 (= cell_1_7 4)))
 (let (($x3488 (= cell_1_7 3)))
 (let (($x601 (= cell_1_7 2)))
 (let (($x1563 (= cell_1_7 1)))
 (or $x1563 $x601 $x3488 $x2020 $x3475 $x1654 $x3231 $x1409 $x18)))))))))))
(assert
 (let (($x1534 (= cell_2_7 9)))
 (let (($x736 (= cell_2_7 8)))
 (let (($x1109 (= cell_2_7 7)))
 (let (($x1395 (= cell_2_7 6)))
 (let (($x3287 (= cell_2_7 5)))
 (let (($x774 (= cell_2_7 4)))
 (let (($x1502 (= cell_2_7 3)))
 (let (($x818 (= cell_2_7 2)))
 (let (($x830 (= cell_2_7 1)))
 (or $x830 $x818 $x1502 $x774 $x3287 $x1395 $x1109 $x736 $x1534)))))))))))
(assert
 (let (($x1936 (= cell_3_7 9)))
 (let (($x2610 (= cell_3_7 8)))
 (let (($x1503 (= cell_3_7 7)))
 (let (($x52 (= cell_3_7 6)))
 (let (($x1311 (= cell_3_7 5)))
 (let (($x1067 (= cell_3_7 4)))
 (let (($x3722 (= cell_3_7 3)))
 (let (($x145 (= cell_3_7 2)))
 (let (($x2670 (= cell_3_7 1)))
 (or $x2670 $x145 $x3722 $x1067 $x1311 $x52 $x1503 $x2610 $x1936)))))))))))
(assert
 (let (($x756 (= cell_4_7 9)))
 (let (($x775 (= cell_4_7 8)))
 (let (($x1343 (= cell_4_7 7)))
 (let (($x920 (= cell_4_7 6)))
 (let (($x2701 (= cell_4_7 5)))
 (let (($x282 (= cell_4_7 4)))
 (let (($x2598 (= cell_4_7 3)))
 (let (($x1017 (= cell_4_7 2)))
 (let (($x2332 (= cell_4_7 1)))
 (or $x2332 $x1017 $x2598 $x282 $x2701 $x920 $x1343 $x775 $x756)))))))))))
(assert
 (let (($x990 (= cell_5_7 9)))
 (let (($x3830 (= cell_5_7 8)))
 (let (($x1199 (= cell_5_7 7)))
 (let (($x1680 (= cell_5_7 6)))
 (let (($x2028 (= cell_5_7 5)))
 (let (($x2828 (= cell_5_7 4)))
 (let (($x1430 (= cell_5_7 3)))
 (let (($x814 (= cell_5_7 2)))
 (let (($x3504 (= cell_5_7 1)))
 (or $x3504 $x814 $x1430 $x2828 $x2028 $x1680 $x1199 $x3830 $x990)))))))))))
(assert
 (let (($x2080 (= cell_6_7 9)))
 (let (($x1666 (= cell_6_7 8)))
 (let (($x400 (= cell_6_7 7)))
 (let (($x2339 (= cell_6_7 6)))
 (let (($x104 (= cell_6_7 5)))
 (let (($x458 (= cell_6_7 4)))
 (let (($x1783 (= cell_6_7 3)))
 (let (($x1341 (= cell_6_7 2)))
 (let (($x2589 (= cell_6_7 1)))
 (or $x2589 $x1341 $x1783 $x458 $x104 $x2339 $x400 $x1666 $x2080)))))))))))
(assert
 (let (($x22 (= cell_7_7 9)))
 (let (($x2297 (= cell_7_7 8)))
 (let (($x403 (= cell_7_7 7)))
 (let (($x3427 (= cell_7_7 6)))
 (let (($x1167 (= cell_7_7 5)))
 (let (($x2197 (= cell_7_7 4)))
 (let (($x260 (= cell_7_7 3)))
 (let (($x21 (= cell_7_7 2)))
 (let (($x668 (= cell_7_7 1)))
 (or $x668 $x21 $x260 $x2197 $x1167 $x3427 $x403 $x2297 $x22)))))))))))
(assert
 (let (($x585 (= cell_8_7 9)))
 (let (($x2325 (= cell_8_7 8)))
 (let (($x129 (= cell_8_7 7)))
 (let (($x450 (= cell_8_7 6)))
 (let (($x1888 (= cell_8_7 5)))
 (let (($x1882 (= cell_8_7 4)))
 (let (($x2322 (= cell_8_7 3)))
 (let (($x1955 (= cell_8_7 2)))
 (let (($x2139 (= cell_8_7 1)))
 (or $x2139 $x1955 $x2322 $x1882 $x1888 $x450 $x129 $x2325 $x585)))))))))))
(assert
 (let (($x939 (= cell_9_7 1)))
 (or $x939 (= cell_9_7 2) (= cell_9_7 3) (= cell_9_7 4) (= cell_9_7 5) (= cell_9_7 6) (= cell_9_7 7) (= cell_9_7 8) (= cell_9_7 9))))
(assert
 (let (($x1530 (= cell_1_8 9)))
 (let (($x750 (= cell_1_8 8)))
 (let (($x1579 (= cell_1_8 7)))
 (let (($x1235 (= cell_1_8 6)))
 (let (($x3767 (= cell_1_8 5)))
 (let (($x2867 (= cell_1_8 4)))
 (let (($x1030 (= cell_1_8 3)))
 (let (($x2671 (= cell_1_8 2)))
 (let (($x292 (= cell_1_8 1)))
 (or $x292 $x2671 $x1030 $x2867 $x3767 $x1235 $x1579 $x750 $x1530)))))))))))
(assert
 (let (($x2908 (= cell_2_8 2)))
 (or (= cell_2_8 1) $x2908 (= cell_2_8 3) (= cell_2_8 4) (= cell_2_8 5) (= cell_2_8 6) (= cell_2_8 7) (= cell_2_8 8) (= cell_2_8 9))))
(assert
 (let (($x1462 (= cell_3_8 9)))
 (let (($x640 (= cell_3_8 8)))
 (let (($x3172 (= cell_3_8 7)))
 (let (($x2662 (= cell_3_8 6)))
 (let (($x569 (= cell_3_8 5)))
 (let (($x1471 (= cell_3_8 4)))
 (let (($x2640 (= cell_3_8 3)))
 (let (($x3839 (= cell_3_8 2)))
 (let (($x3796 (= cell_3_8 1)))
 (or $x3796 $x3839 $x2640 $x1471 $x569 $x2662 $x3172 $x640 $x1462)))))))))))
(assert
 (let (($x561 (= cell_4_8 9)))
 (let (($x3589 (= cell_4_8 8)))
 (let (($x285 (= cell_4_8 7)))
 (let (($x2103 (= cell_4_8 6)))
 (let (($x3146 (= cell_4_8 5)))
 (let (($x1972 (= cell_4_8 4)))
 (let (($x1973 (= cell_4_8 3)))
 (let (($x2862 (= cell_4_8 2)))
 (let (($x183 (= cell_4_8 1)))
 (or $x183 $x2862 $x1973 $x1972 $x3146 $x2103 $x285 $x3589 $x561)))))))))))
(assert
 (let (($x2850 (= cell_5_8 1)))
 (or $x2850 (= cell_5_8 2) (= cell_5_8 3) (= cell_5_8 4) (= cell_5_8 5) (= cell_5_8 6) (= cell_5_8 7) (= cell_5_8 8) (= cell_5_8 9))))
(assert
 (let (($x2178 (= cell_6_8 9)))
 (let (($x2707 (= cell_6_8 8)))
 (let (($x187 (= cell_6_8 7)))
 (let (($x360 (= cell_6_8 6)))
 (let (($x3228 (= cell_6_8 5)))
 (let (($x1469 (= cell_6_8 4)))
 (let (($x2299 (= cell_6_8 3)))
 (let (($x1288 (= cell_6_8 2)))
 (let (($x2619 (= cell_6_8 1)))
 (or $x2619 $x1288 $x2299 $x1469 $x3228 $x360 $x187 $x2707 $x2178)))))))))))
(assert
 (let (($x983 (= cell_7_8 9)))
 (let (($x1366 (= cell_7_8 8)))
 (let (($x780 (= cell_7_8 7)))
 (let (($x2308 (= cell_7_8 6)))
 (let (($x2656 (= cell_7_8 5)))
 (let (($x1602 (= cell_7_8 4)))
 (let (($x3575 (= cell_7_8 3)))
 (let (($x653 (= cell_7_8 2)))
 (let (($x2271 (= cell_7_8 1)))
 (or $x2271 $x653 $x3575 $x1602 $x2656 $x2308 $x780 $x1366 $x983)))))))))))
(assert
 (let (($x2237 (= cell_8_8 9)))
 (let (($x2151 (= cell_8_8 8)))
 (let (($x279 (= cell_8_8 7)))
 (let (($x776 (= cell_8_8 6)))
 (let (($x1718 (= cell_8_8 5)))
 (let (($x3424 (= cell_8_8 4)))
 (let (($x7853 (= cell_8_8 3)))
 (let (($x3720 (= cell_8_8 2)))
 (let (($x2230 (= cell_8_8 1)))
 (or $x2230 $x3720 $x7853 $x3424 $x1718 $x776 $x279 $x2151 $x2237)))))))))))
(assert
 (let (($x1745 (= cell_9_8 2)))
 (let (($x1658 (= cell_9_8 1)))
 (or $x1658 $x1745 (= cell_9_8 3) (= cell_9_8 4) (= cell_9_8 5) (= cell_9_8 6) (= cell_9_8 7) (= cell_9_8 8) (= cell_9_8 9)))))
(assert
 (let (($x1552 (= cell_1_9 9)))
 (let (($x2182 (= cell_1_9 8)))
 (let (($x655 (= cell_1_9 7)))
 (let (($x2010 (= cell_1_9 6)))
 (let (($x2861 (= cell_1_9 5)))
 (let (($x286 (= cell_1_9 4)))
 (let (($x2341 (= cell_1_9 3)))
 (let (($x2524 (= cell_1_9 2)))
 (let (($x2658 (= cell_1_9 1)))
 (or $x2658 $x2524 $x2341 $x286 $x2861 $x2010 $x655 $x2182 $x1552)))))))))))
(assert
 (let (($x702 (= cell_2_9 9)))
 (let (($x1549 (= cell_2_9 8)))
 (let (($x1407 (= cell_2_9 7)))
 (let (($x3651 (= cell_2_9 6)))
 (let (($x1300 (= cell_2_9 5)))
 (let (($x579 (= cell_2_9 4)))
 (let (($x2493 (= cell_2_9 3)))
 (let (($x2635 (= cell_2_9 2)))
 (let (($x30 (= cell_2_9 1)))
 (or $x30 $x2635 $x2493 $x579 $x1300 $x3651 $x1407 $x1549 $x702)))))))))))
(assert
 (let (($x296 (= cell_3_9 1)))
 (or $x296 (= cell_3_9 2) (= cell_3_9 3) (= cell_3_9 4) (= cell_3_9 5) (= cell_3_9 6) (= cell_3_9 7) (= cell_3_9 8) (= cell_3_9 9))))
(assert
 (let (($x913 (= cell_4_9 9)))
 (let (($x1773 (= cell_4_9 8)))
 (let (($x121 (= cell_4_9 7)))
 (let (($x511 (= cell_4_9 6)))
 (let (($x352 (= cell_4_9 5)))
 (let (($x2815 (= cell_4_9 4)))
 (let (($x804 (= cell_4_9 3)))
 (let (($x1704 (= cell_4_9 2)))
 (let (($x415 (= cell_4_9 1)))
 (or $x415 $x1704 $x804 $x2815 $x352 $x511 $x121 $x1773 $x913)))))))))))
(assert
 (let (($x781 (= cell_5_9 9)))
 (let (($x839 (= cell_5_9 8)))
 (let (($x875 (= cell_5_9 7)))
 (let (($x613 (= cell_5_9 6)))
 (let (($x1798 (= cell_5_9 5)))
 (let (($x85 (= cell_5_9 4)))
 (let (($x2261 (= cell_5_9 3)))
 (let (($x973 (= cell_5_9 2)))
 (let (($x934 (= cell_5_9 1)))
 (or $x934 $x973 $x2261 $x85 $x1798 $x613 $x875 $x839 $x781)))))))))))
(assert
 (let (($x765 (= cell_6_9 2)))
 (or (= cell_6_9 1) $x765 (= cell_6_9 3) (= cell_6_9 4) (= cell_6_9 5) (= cell_6_9 6) (= cell_6_9 7) (= cell_6_9 8) (= cell_6_9 9))))
(assert
 (let (($x3731 (= cell_7_9 9)))
 (let (($x2414 (= cell_7_9 8)))
 (let (($x1709 (= cell_7_9 7)))
 (let (($x2757 (= cell_7_9 6)))
 (let (($x678 (= cell_7_9 5)))
 (let (($x2518 (= cell_7_9 4)))
 (let (($x2096 (= cell_7_9 3)))
 (let (($x1310 (= cell_7_9 2)))
 (let (($x310 (= cell_7_9 1)))
 (or $x310 $x1310 $x2096 $x2518 $x678 $x2757 $x1709 $x2414 $x3731)))))))))))
(assert
 (let (($x2528 (= cell_8_9 9)))
 (let (($x954 (= cell_8_9 8)))
 (let (($x2674 (= cell_8_9 7)))
 (let (($x2009 (= cell_8_9 6)))
 (let (($x289 (= cell_8_9 5)))
 (let (($x538 (= cell_8_9 4)))
 (let (($x1732 (= cell_8_9 3)))
 (let (($x2497 (= cell_8_9 2)))
 (let (($x2468 (= cell_8_9 1)))
 (or $x2468 $x2497 $x1732 $x538 $x289 $x2009 $x2674 $x954 $x2528)))))))))))
(assert
 (let (($x1296 (= cell_9_9 2)))
 (let (($x620 (= cell_9_9 1)))
 (or $x620 $x1296 (= cell_9_9 3) (= cell_9_9 4) (= cell_9_9 5) (= cell_9_9 6) (= cell_9_9 7) (= cell_9_9 8) (= cell_9_9 9)))))
(assert
 (and (distinct cell_1_1 cell_1_2 cell_1_3 cell_1_4 cell_1_5 cell_1_6 cell_1_7 cell_1_8 cell_1_9) true))
(assert
 (and (distinct cell_2_1 cell_2_2 cell_2_3 cell_2_4 cell_2_5 cell_2_6 cell_2_7 cell_2_8 cell_2_9) true))
(assert
 (and (distinct cell_3_1 cell_3_2 cell_3_3 cell_3_4 cell_3_5 cell_3_6 cell_3_7 cell_3_8 cell_3_9) true))
(assert
 (and (distinct cell_4_1 cell_4_2 cell_4_3 cell_4_4 cell_4_5 cell_4_6 cell_4_7 cell_4_8 cell_4_9) true))
(assert
 (and (distinct cell_5_1 cell_5_2 cell_5_3 cell_5_4 cell_5_5 cell_5_6 cell_5_7 cell_5_8 cell_5_9) true))
(assert
 (and (distinct cell_6_1 cell_6_2 cell_6_3 cell_6_4 cell_6_5 cell_6_6 cell_6_7 cell_6_8 cell_6_9) true))
(assert
 (and (distinct cell_7_1 cell_7_2 cell_7_3 cell_7_4 cell_7_5 cell_7_6 cell_7_7 cell_7_8 cell_7_9) true))
(assert
 (and (distinct cell_8_1 cell_8_2 cell_8_3 cell_8_4 cell_8_5 cell_8_6 cell_8_7 cell_8_8 cell_8_9) true))
(assert
 (and (distinct cell_9_1 cell_9_2 cell_9_3 cell_9_4 cell_9_5 cell_9_6 cell_9_7 cell_9_8 cell_9_9) true))
(assert
 (and (distinct cell_1_1 cell_2_1 cell_3_1 cell_4_1 cell_5_1 cell_6_1 cell_7_1 cell_8_1 cell_9_1) true))
(assert
 (and (distinct cell_1_2 cell_2_2 cell_3_2 cell_4_2 cell_5_2 cell_6_2 cell_7_2 cell_8_2 cell_9_2) true))
(assert
 (and (distinct cell_1_3 cell_2_3 cell_3_3 cell_4_3 cell_5_3 cell_6_3 cell_7_3 cell_8_3 cell_9_3) true))
(assert
 (and (distinct cell_1_4 cell_2_4 cell_3_4 cell_4_4 cell_5_4 cell_6_4 cell_7_4 cell_8_4 cell_9_4) true))
(assert
 (and (distinct cell_1_5 cell_2_5 cell_3_5 cell_4_5 cell_5_5 cell_6_5 cell_7_5 cell_8_5 cell_9_5) true))
(assert
 (and (distinct cell_1_6 cell_2_6 cell_3_6 cell_4_6 cell_5_6 cell_6_6 cell_7_6 cell_8_6 cell_9_6) true))
(assert
 (and (distinct cell_1_7 cell_2_7 cell_3_7 cell_4_7 cell_5_7 cell_6_7 cell_7_7 cell_8_7 cell_9_7) true))
(assert
 (and (distinct cell_1_8 cell_2_8 cell_3_8 cell_4_8 cell_5_8 cell_6_8 cell_7_8 cell_8_8 cell_9_8) true))
(assert
 (and (distinct cell_1_9 cell_2_9 cell_3_9 cell_4_9 cell_5_9 cell_6_9 cell_7_9 cell_8_9 cell_9_9) true))
(assert
 (and (distinct cell_1_1 cell_1_2 cell_1_3 cell_2_1 cell_2_2 cell_2_3 cell_3_1 cell_3_2 cell_3_3) true))
(assert
 (and (distinct cell_1_4 cell_1_5 cell_1_6 cell_2_4 cell_2_5 cell_2_6 cell_3_4 cell_3_5 cell_3_6) true))
(assert
 (and (distinct cell_1_7 cell_1_8 cell_1_9 cell_2_7 cell_2_8 cell_2_9 cell_3_7 cell_3_8 cell_3_9) true))
(assert
 (and (distinct cell_4_1 cell_4_2 cell_4_3 cell_5_1 cell_5_2 cell_5_3 cell_6_1 cell_6_2 cell_6_3) true))
(assert
 (and (distinct cell_4_4 cell_4_5 cell_4_6 cell_5_4 cell_5_5 cell_5_6 cell_6_4 cell_6_5 cell_6_6) true))
(assert
 (and (distinct cell_4_7 cell_4_8 cell_4_9 cell_5_7 cell_5_8 cell_5_9 cell_6_7 cell_6_8 cell_6_9) true))
(assert
 (and (distinct cell_7_1 cell_7_2 cell_7_3 cell_8_1 cell_8_2 cell_8_3 cell_9_1 cell_9_2 cell_9_3) true))
(assert
 (and (distinct cell_7_4 cell_7_5 cell_7_6 cell_8_4 cell_8_5 cell_8_6 cell_9_4 cell_9_5 cell_9_6) true))
(assert
 (and (distinct cell_7_7 cell_7_8 cell_7_9 cell_8_7 cell_8_8 cell_8_9 cell_9_7 cell_9_8 cell_9_9) true))
(assert
 (let (($x895 (and (distinct cell_5_9 cell_6_8 cell_7_7 cell_8_6) true)))
 (let (($x853 (and (distinct cell_2_9 cell_3_8 cell_4_7 cell_5_6 cell_6_5 cell_7_4 cell_8_3 cell_9_2) true)))
 (let (($x1797 (and (distinct cell_1_8 cell_2_7 cell_3_6 cell_4_5 cell_5_4 cell_6_3 cell_7_2 cell_8_1) true)))
 (let (($x399 (and (distinct cell_1_5 cell_2_4 cell_3_3 cell_4_2) true)))
 (let (($x2070 (and (distinct cell_5_1 cell_6_2 cell_7_3 cell_8_4) true)))
 (let (($x903 (and (distinct cell_2_1 cell_3_2 cell_4_3 cell_5_4 cell_6_5 cell_7_6 cell_8_7 cell_9_8) true)))
 (let (($x535 (and (distinct cell_1_2 cell_2_3 cell_3_4 cell_4_5 cell_5_6 cell_6_7 cell_7_8 cell_8_9) true)))
 (let (($x1371 (and (distinct cell_1_5 cell_2_6 cell_3_7 cell_4_8) true)))
 (and $x1371 $x535 $x903 $x2070 $x399 $x1797 $x853 $x895))))))))))
(assert
 (= cell_7_2 2))
(check-sat)
